(set-info :status unknown)
(declare-fun %D () (_ BitVec 5))
(declare-fun %C () (_ BitVec 5))
(declare-fun %Cond () (_ BitVec 1))
(assert
 (let ((?x9517 ((_ sign_extend 4) %Cond)))
 (let ((?x12721 (bvxor ?x9517 (_ bv31 5))))
 (let ((?x1740 (bvand ?x12721 %D)))
 (let ((?x15423 (bvand ?x9517 %C)))
 (and (distinct (bvor ?x15423 ?x1740) (ite (= %Cond (_ bv1 1)) %C %D)) true))))))
(check-sat)
